networks/zoo_9_6/zoo_9_6.sol
<?xml version = "1.0" encoding="UTF-8" standalone="yes"?>
<CPLEXSolution version="1.2">
 <header
   problemName="networks/zoo_9_6/zoo_9_6.lp"
   solutionName="incumbent"
   solutionIndex="-1"
   objectiveValue="6"
   solutionTypeValue="3"
   solutionTypeString="primal"
   solutionStatusValue="101"
   solutionStatusString="integer optimal solution"
   solutionMethodString="mip"
   primalFeasible="1"
   dualFeasible="1"
   MIPNodes="0"
   MIPIterations="5"
   writeLevel="3"/>
 <quality
   epInt="1.0000000000000001e-05"
   epRHS="9.9999999999999995e-07"
   maxIntInfeas="0"
   maxPrimalInfeas="0"
   maxX="1"
   maxSlack="7"/>
 <variables>
  <variable name="Y(1,2)" index="1" value="1"/>
  <variable name="Y(2,1)" index="7" value="1"/>
  <variable name="Y(3,3)" index="16" value="1"/>
  <variable name="Y(4,5)" index="24" value="1"/>
  <variable name="Y(5,2)" index="29" value="1"/>
  <variable name="Y(6,3)" index="37" value="1"/>
  <variable name="X(1,7,2)" index="43" value="1"/>
  <variable name="X(2,1,1)" index="48" value="1"/>
  <variable name="X(2,8,5)" index="58" value="1"/>
  <variable name="X(3,1,2)" index="61" value="1"/>
  <variable name="X(3,2,3)" index="68" value="1"/>
  <variable name="X(3,9,6)" index="77" value="1"/>
  <variable name="X(5,1,4)" index="81" value="1"/>
  <variable name="X(5,2,5)" index="88" value="1"/>
  <variable name="X(5,3,6)" index="95" value="1"/>
  <variable name="C(2,1)" index="99" value="1"/>
  <variable name="C(5,2)" index="105" value="1"/>
  <variable name="C(6,3)" index="107" value="1"/>
 </variables>
</CPLEXSolution>
